[[91, 83, 82, 73, 75, 74, 64, 65, 66, 67, 68, 59, 58, 49, 57, 56, 55, 47, 46, 39, 40, 48, 38, 37, 29, 30, 31, 28, 19, 20, 21, 22, 13, 12], [11, 10, 2, 3, 4, 14, 5, 6, 7, 8, 9, 18, 17, 16, 15, 23, 24, 25, 26, 27, 35, 36, 44, 34, 43, 33, 32, 41, 42, 50, 51, 52, 45, 54, 53], [63, 62, 60, 61, 70, 69, 78, 71, 80, 72, 81, 79, 88, 89, 90, 99, 98, 97, 96, 87, 95, 86, 77, 76, 85, 84, 94, 93, 92]]